p cnf 7230 17
1534 3804 3826 3856 4551 0
-3804 -4551 0
-3826 -4551 0
-3800 -3886 4556 0
3800 -4557 0
-3856 -4551 0
-4556 4557 0
4554 4555 0
3798 -4555 0
-3798 -4554 0
4552 4553 0
3796 -4553 0
-3796 -4552 0
3886 -4557 0
-1542 -4559 0
4550 4551 0
-4550 -4551 0
